
Gurobi 9.1.2 (win64) logging started Tue Aug 31 02:13:16 2021

Changed value of parameter LogFile to ../results/logs/log_samuel_kroger_2021_08_31_02_13_04.csv_4_250.log
   Prev:   Default: 
Changed value of parameter method to 3
   Prev: -1  Min: -1  Max: 5  Default: -1
Gurobi Optimizer version 9.1.2 build v9.1.2rc0 (win64)
Thread count: 6 physical cores, 12 logical processors, using up to 12 threads
Optimize a model with 38681 rows, 46266 columns and 434032 nonzeros
Model fingerprint: 0x78758422
Variable types: 0 continuous, 46266 integer (46266 binary)
Coefficient statistics:
  Matrix range     [1e+00, 4e+00]
  Objective range  [1e+00, 1e+00]
  Bounds range     [1e+00, 1e+00]
  RHS range        [1e+00, 3e+02]
Found heuristic solution: objective -0.0000000
Presolve removed 479 rows and 12254 columns
Presolve time: 1.73s
Presolved: 38202 rows, 34012 columns, 413210 nonzeros
Variable types: 0 continuous, 34012 integer (32854 binary)

Concurrent LP optimizer: primal simplex, dual simplex, and barrier
Showing barrier log only...

Root barrier log...


Barrier performed 0 iterations in 2.12 seconds
Barrier solve interrupted - model solved by another algorithm


Solved with dual simplex

Root relaxation: objective 1.414299e+04, 1015 iterations, 0.31 seconds

    Nodes    |    Current Node    |     Objective Bounds      |     Work
 Expl Unexpl |  Obj  Depth IntInf | Incumbent    BestBd   Gap | It/Node Time

     0     0 14142.9911    0  482   -0.00000 14142.9911      -     -    2s
H    0     0                    13883.000000 14142.9911  1.87%     -    3s
H    0     0                    13884.000000 14142.9911  1.87%     -    3s
H    0     0                    13889.000000 14142.9911  1.83%     -    3s
H    0     0                    13895.000000 14142.9911  1.78%     -    3s
H    0     0                    13898.000000 14142.9911  1.76%     -    3s
H    0     0                    13900.000000 14142.9911  1.75%     -    3s
H    0     0                    13902.000000 14142.4911  1.73%     -    3s
H    0     0                    13933.000000 14142.4911  1.50%     -    3s
H    0     0                    13940.000000 13961.6844  0.16%     -    4s
     0     0 13959.6419    0  155 13940.0000 13959.6419  0.14%     -    4s
     0     0 13958.4189    0  151 13940.0000 13958.4189  0.13%     -    4s
     0     0 13947.6366    0  152 13940.0000 13947.6366  0.05%     -    5s
     0     0 13945.6962    0   62 13940.0000 13945.6962  0.04%     -    5s
     0     0 13944.8170    0   64 13940.0000 13944.8170  0.03%     -    5s
     0     0 13944.5586    0   65 13940.0000 13944.5586  0.03%     -    5s
     0     0 13942.1249    0   29 13940.0000 13942.1249  0.02%     -    6s
     0     0 13941.6951    0   27 13940.0000 13941.6951  0.01%     -    6s

Cutting planes:
  Gomory: 186
  Cover: 6
  Implied bound: 2
  MIR: 173
  StrongCG: 6
  GUB cover: 132
  Zero half: 29
  RLT: 28
  Relax-and-lift: 6

Explored 1 nodes (2041 simplex iterations) in 6.75 seconds
Thread count was 12 (of 12 available processors)

Solution count 10: 13940 13933 13902 ... -0

Optimal solution found (tolerance 1.00e-04)
Best objective 1.394000000000e+04, best bound 1.394100000000e+04, gap 0.0072%

Gurobi 9.1.2 (win64) logging started Tue Aug 31 02:13:26 2021

Changed value of parameter LogFile to ../results/logs/log_samuel_kroger_2021_08_31_02_13_04.csv_4_250.log
   Prev:   Default: 
Changed value of parameter method to 3
   Prev: -1  Min: -1  Max: 5  Default: -1
Gurobi Optimizer version 9.1.2 build v9.1.2rc0 (win64)
Thread count: 6 physical cores, 12 logical processors, using up to 12 threads
Optimize a model with 18156 rows, 24016 columns and 499670 nonzeros
Model fingerprint: 0xfa25118e
Variable types: 0 continuous, 24016 integer (24016 binary)
Coefficient statistics:
  Matrix range     [1e+00, 4e+00]
  Objective range  [1e+00, 1e+00]
  Bounds range     [1e+00, 1e+00]
  RHS range        [1e+00, 3e+02]
Found heuristic solution: objective -0.0000000
Presolve removed 219 rows and 6707 columns
Presolve time: 1.79s
Presolved: 17937 rows, 17309 columns, 488072 nonzeros
Variable types: 0 continuous, 17309 integer (16646 binary)

Concurrent LP optimizer: primal simplex, dual simplex, and barrier
Showing barrier log only...

Root barrier log...


Barrier performed 0 iterations in 2.02 seconds
Barrier solve interrupted - model solved by another algorithm


Solved with dual simplex

Root relaxation: objective 7.065882e+03, 834 iterations, 0.16 seconds

    Nodes    |    Current Node    |     Objective Bounds      |     Work
 Expl Unexpl |  Obj  Depth IntInf | Incumbent    BestBd   Gap | It/Node Time

     0     0 7065.88238    0  233   -0.00000 7065.88238      -     -    2s
H    0     0                    6951.0000000 7065.88238  1.65%     -    2s
H    0     0                    6972.0000000 7065.88238  1.35%     -    2s
H    0     0                    6975.0000000 7065.79905  1.30%     -    2s
     0     0 6992.16401    0   87 6975.00000 6992.16401  0.25%     -    2s
H    0     0                    6978.0000000 6992.16401  0.20%     -    3s
     0     0 6990.94165    0   70 6978.00000 6990.94165  0.19%     -    3s
     0     0 6990.94165    0   70 6978.00000 6990.94165  0.19%     -    3s
     0     0 6980.21966    0   38 6978.00000 6980.21966  0.03%     -    3s
     0     0     cutoff    0      6978.00000 6978.00000  0.00%     -    4s

Cutting planes:
  Gomory: 142
  Cover: 4
  Implied bound: 4
  MIR: 50
  StrongCG: 3
  GUB cover: 49
  Zero half: 8
  RLT: 14
  Relax-and-lift: 2

Explored 1 nodes (1324 simplex iterations) in 4.12 seconds
Thread count was 12 (of 12 available processors)

Solution count 5: 6978 6975 6972 ... -0

Optimal solution found (tolerance 1.00e-04)
Best objective 6.978000000000e+03, best bound 6.978000000000e+03, gap 0.0000%

Gurobi 9.1.2 (win64) logging started Tue Aug 31 04:18:30 2021

Changed value of parameter LogFile to ../results/logs/log_samuel_kroger_2021_08_31_02_13_04.csv_4_250.log
   Prev:   Default: 
Changed value of parameter method to 3
   Prev: -1  Min: -1  Max: 5  Default: -1
Gurobi Optimizer version 9.1.2 build v9.1.2rc0 (win64)
Thread count: 6 physical cores, 12 logical processors, using up to 12 threads
Optimize a model with 1320909 rows, 1751426 columns and 19319869 nonzeros
Model fingerprint: 0xe9f3b6e5
Variable types: 0 continuous, 1751426 integer (1751426 binary)
Coefficient statistics:
  Matrix range     [1e+00, 4e+00]
  Objective range  [1e+00, 1e+00]
  Bounds range     [1e+00, 1e+00]
  RHS range        [1e+00, 3e+02]
Found heuristic solution: objective -0.0000000
Presolve removed 1873 rows and 541027 columns (presolve time = 12s) ...
Presolve removed 1900 rows and 549970 columns (presolve time = 19s) ...
Presolve removed 1900 rows and 549970 columns (presolve time = 20s) ...
Presolve removed 2355 rows and 549970 columns (presolve time = 25s) ...
Presolve removed 2355 rows and 549970 columns (presolve time = 30s) ...
Presolve removed 2355 rows and 549970 columns (presolve time = 35s) ...
Presolve removed 2355 rows and 549970 columns (presolve time = 40s) ...
Presolve removed 7013 rows and 550004 columns (presolve time = 46s) ...
Presolve removed 7014 rows and 550005 columns (presolve time = 52s) ...
Presolve removed 7014 rows and 550005 columns (presolve time = 56s) ...
Presolve removed 7014 rows and 550006 columns (presolve time = 66s) ...
Presolve removed 16080 rows and 559072 columns (presolve time = 73s) ...
Presolve removed 16080 rows and 559072 columns (presolve time = 76s) ...
Presolve removed 18614 rows and 559775 columns (presolve time = 82s) ...
Presolve removed 18839 rows and 560000 columns (presolve time = 87s) ...
Presolve removed 20050 rows and 561211 columns (presolve time = 90s) ...
Presolve removed 20050 rows and 561211 columns (presolve time = 97s) ...
Presolve removed 20050 rows and 561211 columns (presolve time = 103s) ...
Presolve removed 20050 rows and 561211 columns (presolve time = 105s) ...
Presolve removed 20050 rows and 561211 columns (presolve time = 117s) ...
Presolve removed 20588 rows and 561749 columns (presolve time = 124s) ...
Presolve removed 19967 rows and 561128 columns
Presolve time: 123.79s
Presolved: 1300942 rows, 1190298 columns, 18142194 nonzeros
Variable types: 0 continuous, 1190298 integer (1151137 binary)

Concurrent LP optimizer: primal simplex, dual simplex, and barrier
Showing barrier log only...

Root barrier log...

Elapsed ordering time = 5s
Elapsed ordering time = 10s
Elapsed ordering time = 15s
Elapsed ordering time = 20s
Elapsed ordering time = 33s
Elapsed ordering time = 35s
Elapsed ordering time = 40s
Elapsed ordering time = 45s
Elapsed ordering time = 103s
Elapsed ordering time = 106s
Elapsed ordering time = 111s
Elapsed ordering time = 115s
Elapsed ordering time = 120s
Elapsed ordering time = 125s
Elapsed ordering time = 130s
Elapsed ordering time = 135s
Elapsed ordering time = 140s
Elapsed ordering time = 145s
Elapsed ordering time = 150s
Elapsed ordering time = 155s
Elapsed ordering time = 170s
Elapsed ordering time = 176s
Elapsed ordering time = 181s
Elapsed ordering time = 185s
Elapsed ordering time = 190s
Elapsed ordering time = 195s
Elapsed ordering time = 200s
Elapsed ordering time = 205s
Elapsed ordering time = 210s
Elapsed ordering time = 215s
Elapsed ordering time = 220s
Elapsed ordering time = 239s
Elapsed ordering time = 247s
Elapsed ordering time = 251s
Elapsed ordering time = 256s
Elapsed ordering time = 260s
Elapsed ordering time = 265s
Elapsed ordering time = 270s
Elapsed ordering time = 275s
Elapsed ordering time = 280s
Elapsed ordering time = 285s
Elapsed ordering time = 290s
Elapsed ordering time = 295s
Elapsed ordering time = 300s
Elapsed ordering time = 305s
Elapsed ordering time = 319s
Elapsed ordering time = 321s
Elapsed ordering time = 326s
Elapsed ordering time = 330s
Elapsed ordering time = 335s
Elapsed ordering time = 340s
Elapsed ordering time = 345s
Elapsed ordering time = 350s
Elapsed ordering time = 355s
Elapsed ordering time = 360s
Ordering time: 362.81s

Barrier performed 0 iterations in 518.81 seconds
Barrier solve interrupted - model solved by another algorithm


Solved with dual simplex

Root relaxation: objective 5.082246e+05, 59773 iterations, 386.35 seconds
Total elapsed time = 523.08s
Total elapsed time = 525.47s

    Nodes    |    Current Node    |     Objective Bounds      |     Work
 Expl Unexpl |  Obj  Depth IntInf | Incumbent    BestBd   Gap | It/Node Time

     0     0 508224.635    0 25352   -0.00000 508224.635      -     -  552s
H    0     0                      72.0000000 508224.635      -     -  563s
H    0     0                    209462.00000 508224.635   143%     -  581s
     0     0 496662.552    0 6337 209462.000 496662.552   137%     -  807s
H    0     0                    338321.00000 496662.552  46.8%     -  851s
     0     0 496557.178    0 5988 338321.000 496557.178  46.8%     -  864s
     0     0 496553.004    0 5958 338321.000 496553.004  46.8%     -  871s
     0     0 496552.763    0 5955 338321.000 496552.763  46.8%     -  877s
     0     0 495451.038    0 4361 338321.000 495451.038  46.4%     -  995s
H    0     0                    366277.00000 495451.038  35.3%     - 1017s
     0     0 495313.210    0 4216 366277.000 495313.210  35.2%     - 1025s
     0     0 495284.032    0 4305 366277.000 495284.032  35.2%     - 1033s
     0     0 495280.144    0 4290 366277.000 495280.144  35.2%     - 1040s
     0     0 495279.546    0 4297 366277.000 495279.546  35.2%     - 1047s
     0     0 494846.400    0 2281 366277.000 494846.400  35.1%     - 1151s
H    0     0                    494490.00000 494846.400  0.07%     - 1224s
     0     0 494795.621    0 2025 494490.000 494795.621  0.06%     - 1232s
     0     0 494787.316    0 1948 494490.000 494787.316  0.06%     - 1240s
     0     0 494786.639    0 1991 494490.000 494786.639  0.06%     - 1247s
     0     0 494689.102    0 1406 494490.000 494689.102  0.04%     - 1291s
     0     0 494672.529    0 1333 494490.000 494672.529  0.04%     - 1309s
     0     0 494669.850    0 1332 494490.000 494669.850  0.04%     - 1316s
     0     0 494669.458    0 1324 494490.000 494669.458  0.04%     - 1324s
     0     0 494649.605    0 1012 494490.000 494649.605  0.03%     - 1352s
H    0     0                    494534.00000 494649.605  0.02%     - 1376s
     0     0 494647.289    0 1001 494534.000 494647.289  0.02%     - 1382s
     0     0 494646.870    0 1037 494534.000 494646.870  0.02%     - 1389s
     0     0 494637.993    0  940 494534.000 494637.993  0.02%     - 1412s
H    0     0                    494535.00000 494637.993  0.02%     - 1434s
     0     0 494636.223    0  980 494535.000 494636.223  0.02%     - 1439s
     0     0 494630.759    0  862 494535.000 494630.759  0.02%     - 1461s
     0     0 494629.568    0  896 494535.000 494629.568  0.02%     - 1479s
     0     0 494627.669    0  874 494535.000 494627.669  0.02%     - 1501s
     0     0 494627.464    0  882 494535.000 494627.464  0.02%     - 1517s
     0     0 494625.316    0  766 494535.000 494625.316  0.02%     - 1540s
H    0     0                    494539.00000 494625.316  0.02%     - 1565s
     0     0 494624.776    0  778 494539.000 494624.776  0.02%     - 1570s
     0     0 494624.525    0  793 494539.000 494624.525  0.02%     - 1591s
     0     0 494624.525    0  753 494539.000 494624.525  0.02%     - 1848s
H    0     0                    494560.00000 494624.525  0.01%     - 1898s
H    0     0                    494563.00000 494624.525  0.01%     - 1926s
     0     2 494623.525    0  741 494563.000 494623.525  0.01%     - 2446s
     1     4 494623.525    1  751 494563.000 494623.525  0.01%   931 2463s
     3     8 494623.525    2  736 494563.000 494623.525  0.01%   321 2482s
     7    14 494622.799    3  728 494563.000 494622.799  0.01%   156 2502s
    13    20 494622.584    4  717 494563.000 494622.584  0.01%   102 2510s

Cutting planes:
  Gomory: 365
  Cover: 349
  Implied bound: 1587
  MIR: 19142
  StrongCG: 239
  GUB cover: 5837
  Zero half: 1314
  RLT: 2880
  Relax-and-lift: 316

Explored 19 nodes (102194 simplex iterations) in 2537.28 seconds
Thread count was 12 (of 12 available processors)

Solution count 10: 494563 

Solve interrupted (error code 10001)
Best objective 4.945630000000e+05, best bound 4.946225284777e+05, gap 0.0120%
